62 63 70 74 75 78 79 80 88 91 92 92 92 92 99 106 107 109 110 111 116 118 120 120 123 123 123 125 126 127 130 135 137 139 140 141 142 143 144 146 147 152 155 155 159 160 164 165 166 168 168 169 171 174 177 179 182 183 190 194 195 198 199 200 208 211 212 212 212 212 219 226 227 229 230 231 236 238 240 240 243 243 243 245 246 247 250 255 257 259 260 261 262 263 264 266 267 272 275 275 279 280 284 285 286 288 288 289 291 294 297 299 302 303 310 314 315 318 319 320 328 331 332 332 332 332 339 346 347 349 350 351 356 358 360 360 363 363 363 365 366 367 370 375 377 379 380 381 382 383 384 386 387 392 395 395 399 400 404 405 406 408 408 409 411 414 417 419 422 423 430 434 435 438 439 440 448 451 452 452 452 452 459 466 467 469 470 471 476 478 480 480 483 483 483 485 486 487 490 495 497 499 500 501 502 503 504 506 507 512 515 515 519 520 524 525 526 528 528 529 531 534 537 539